c A SAT instance generated from a 3-CNF formula that had 30 clauses and 10 variables
p cnf 10 30
7 -3 -4 0
-5 -1 -7 0
10 7 -2 0
5 8 -10 0
-6 7 -10 0
-4 -8 9 0
-5 2 7 0
7 1 -9 0
1 -9 2 0
7 6 -2 0
3 1 2 0
9 -2 -7 0
-9 6 10 0
10 -5 -3 0
-6 5 -4 0
-5 7 2 0
-4 10 -8 0
-5 -1 -7 0
8 4 5 0
3 5 4 0
9 4 -7 0
-2 -6 -1 0
7 1 10 0
5 -10 -8 0
2 -10 4 0
-10 -7 -3 0
-6 2 -9 0
5 3 -10 0
-9 6 -10 0
-10 -9 1 0
